NAME: line_21_45
TYPE: TSP
COMMENT: srandom_21_45
DIMENSION: 21
EDGE_WEIGHT_TYPE: EUC_2D
NODE_COORD_SECTION
1 4698 4502
2 1308 3097
3 352 650
4 1953 1063
5 1771 3577
6 770 1264
7 4410 829
8 1238 4657
9 4100 2116
10 4690 2545
11 3461 4930
12 2658 3267
13 248 353
14 1529 222
15 3790 1356
16 4208 4950
17 1225 2022
18 4041 3688
19 4788 4551
20 3725 2421
21 1158 4327
